Nb of jobs, Nb of Machines, Time seed, Machine seed, Upper bound, Lower bound
3,10,-1,-1,-1,-1
Times
79,12,17,5,58,80,4,74,5,94
53,6,82,65,22,5,12,87,60,52
83,14,10,87,15,64,55,51,2,21
Machines
6,10,7,8,1,2,5,3,9,4
5,8,7,3,9,1,10,4,2,6
8,1,10,6,2,7,9,4,3,5
